(set-info :smt-lib-version 2.6)
(set-logic QF_SLIA)
(set-info :source |
Generated by: Joel Day, Thorsten Ehlers, Mitja Kulczynski, Federico Mora, Florin Manea, Dirk Nowotka, Danny Poulsen, Zhengyang Lu
Application: Test WOORPJE
Target solver: WOORPJE
Publications: Day, J. D., Ehlers, T., Kulczynski, M., Manea, F., Nowotka, D., & Poulsen, D. B. (2019). On solving word equations using SAT. In RP 2019
Description: Enriches a system of 30 word equations by suitable linear constraints
|)
(set-info :license "https://creativecommons.org/licenses/by/4.0/")
(set-info :category "random")
(set-info :status unknown)

(declare-fun F () String)
(declare-fun E () String)
(declare-fun C () String)
(declare-fun D () String)
(assert (= (str.++  "bccac" F "afbb" E "fbfef" D "dcdacedfebfcdcada")  (str.++  "bccac" F "afbbcceefbfef" D "dcdacedfebfcdcada") ))
(assert (= (str.++  "dcebaeacaad" D "ffefcafeaabb" D "dccaad" C "baecb")  (str.++  "dcebaeacaad" D "ffefcafeaabb" D "dccaadafbaecb") ))
(assert (= (str.++  "a" F "dbbbfeddfb" C "cbdfe" C "fafabd" D "edeffbbdb")  (str.++  "a" F "dbbbfeddfb" C "cbdfeaff" C "abdbcedeffbbdb") ))
(assert (>=(* (str.len F) 16) 48))
(assert (<=(* (str.len C) 3) 12))
(check-sat)

(exit)
